 2
surface (=0.07384) was achieved. Comparing 
the nonuniformity under the optimal 
condition (=0.07384) with that under the 
original condition (=0.2422), the 
improvement was 69.51%. 
 
??????? 
???????????????
???????????????????
??????????????????
???????????????????
???????????????????
???????????????????
?????(stepper)??????????
???????????????????
???????????????????
???????(depth of focus)????
???????????????????
???????????????????
???????????????????
???????????????????
??????????????????
??? 1???????????????
???????????????????
???????????????????
??????????????????
???????????????????
???????????????????
???????????????????
???????????????????
???????????????????
?????????????????
???????????????????
???????????????????
???????????????????
???????????????????
??????????????????
???????????????????
???????????????????
???????? 2??? 
????
??? ?????
???
?????
????
???
??
 
? 1??????????? 
?????
?????(???)
???
?????
????
??
???
 
? 2??????????? 
?? 1 ?????????????
???????????????????
???????????????????
??????????????????
?????????????????
???????????????????
????-???????????????
??????????????????
??????????????????
???????????????????
??????????????????
????-???????????????
?????????? 
Runnels ? Renteln[1]??????
????(1)?????????????(2)
???????(3)???????????
??????????? Preston ????
???????????????????
???????????????Runnels
? Eyman[2]?????????????
???????????????????
-??-????????????????
???????????(slurry transport 
model)??????? (physical erosion 
model)????????????????
??Kaanta? Landis[3]?????????
???????????????????
????????(??)????????
???????????????????
??????????????????
??Srinivasa?[4]???????????
???????????????????
??????????????????
von Mises ??????????????
???? ANSYS???????????
??????????????????
??Wang ?[5]????????????
????????? I-DEAS ?????
?????????????????[4]
 4
???
A
O
O'
??
Wp
Ww
Rwp Rw
Rp
 
? 3 ????????????? 
?(1)??????????????
???????? Pw ω=ω rr ???????
?? A?????V
r
? ( )wpp R* rrω− ???
???????????????????
???????????????????
???????????????????
???????????????????
???????????????????
???????????????????
???????????????????
????????????? 3 ????
??P1???????????P2???
??????P3???????W???-
?????? 
?????
???
P3
???
??
W
??
P2
z
P1
r
 
? 4 ?????????? 
(2) CMP???????????? 
?????????[17]??????
?????-??????????????
???????? [ ]{ } { }FdK =              (2) 
???[ ]K ?????????{ }d ????
??{ }F ?????? 
(4) CMP?????? 
?????? 4736???? 2528??
???????(1)???????????
???????????????????
(2)????????????(3)????
???????????????????
????????????????(1)??
???????????????????
?????????(2)?????????
??????????????????(3)
???????????????????
?????(4)?????????????
???????????????????
?????????????? 
(5) ???? 
????? Wang ?[5]?? von Mises
??????????????? von Mises
????????????????? 
2
1
2
rz
2
rr
2
zz
2
zzrr ]6)()()[(2
1 τ+σ−σ+σ−σ+σ−σ=σ θθθθ   (3) 
???σ?von Mises??? rrσ ? θθσ ? zzσ
? rzτ ???????????????? 
????????????????
?????????? 
        
( )
n
1R
n
1i
2
avei
ave
∑
=
σ−σ
σ=           (4) 
??? R ?????????????
WIWNU(within-wafer NU)? aveσ ?von Mises
?????? iσ?????? i???? von 
Mises???n????????? 
?????????????????
????????????? 1?????
????????????? 0.069MPa ?
0.0414MPa??????????????
?? von Mises?????? 8?????
??? von Mises???????????
?????? 5???????????von 
Mises ????????????????
???????????????????
???????????????????
??????????????Wang?[5]
????????? 
? 1 ?????????[5] 
 ????
(MPa) 
??? ?? 
(mm) 
??
(mm)
????? 206896.55 0.3 100.33 7.62
??? 0.2655 0.1 100.33 0.635
?? 206896.55 0.3 100.0 0.706
??? 2.29655 0.1 127.0 1.397
? 100.75 ??? 206896.55 0.3 ? 103.75 8.961
0 20 40 60 80 100
distance from wafer center (mm)
0.00
0.05
0.10
0.15
0.20
0.25
vo
n 
M
is
es
 s
tre
ss
 (M
P
a)
 
? 5 ???? von Mises??????? 
 6
(consequent parameters)? 
????????????????
Σ??????????????????
???????????????????
?????? 
2,1i,
w
fw
fwO
i
i
i
ii
i
iii,5 === ∑
∑∑          (11) 
?? i,5O ???????? 
(2) CMP? ANFIS????? 
????????????????
??????????????????
????-???????????????
? ? ? ? ? ? ? ? ? ? 0.0034482 
MPa~0.0103448MPa ? ? ? ? ? ? ?
0.0275862MPa~0.0827586MPa???-???
??? 0.5mm~1.5mm???????
0.6985mm~2.0955mm?????????
2.296551MPa~68.948MPa????????
??????????????8????
???????????????????
5??????1?????????243?
???????????????????
CMP?ANFIS?????? 27L ?????
???????????? 16L ?????
???????????????????
?????2??3?????Bp?Rp?W?
Tp?Ep?R??????????????
????-???????????????
??????????? 
???????2?27?CMP????
??????????????????
???????????????????
???????????????????
???????0.02???500??????
????????????9??????
????8.69473*10-7??????????
???0?????????10????11
??15?CMP????????????
???? 
 
?8 ????????????????? 
? 2 CMP???? 
Training 
no. 
Bp 
(MPa)
Rp 
(MPa)
W 
(mm) 
Tp 
(mm) 
Ep 
(MPa) 
R 
(WIWNU)
1 0.00344820.0275862 0.5 0.6985 2.296551 0.09357176
2 0.00344820.0275862 1.0 1.397 20.6844 0.49086480
3 0.00344820.0275862 1.5 2.0955 68.948 0.70873114
4 0.00344820.0551724 0.5 1.397 68.948 0.21820412
5 0.00344820.0551724 1.0 2.0955 2.296551 0.70290720
6 0.00344820.0551724 1.5 0.6985 20.6844 0.10277895
7 0.00344820.0827586 0.5 2.0955 20.6844 0.18325581
8 0.00344820.0827586 1.0 0.6985 68.948 0.11669781
9 0.00344820.0827586 1.5 1.397 2.296551 0.59885580
10 0.00689650.0275862 0.5 0.6985 2.296551 0.08662606
11 0.00689650.0275862 1.0 1.397 20.6844 0.48471744
12 0.00689650.0275862 1.5 2.0955 68.948 0.70316913
13 0.00689650.0551724 0.5 1.397 68.948 0.21978381
14 0.00689650.0551724 1.0 2.0955 2.296551 0.68749534
15 0.00689650.0551724 1.5 0.6985 20.6844 0.09918344
16 0.00689650.0827586 0.5 2.0955 20.6844 0.20016358
17 0.00689650.0827586 1.0 0.6985 68.948 0.11381028
18 0.00689650.0827586 1.5 1.397 2.296551 0.58123167
19 0.01034480.0275862 0.5 0.6985 2.296551 0.08209430
20 0.01034480.0275862 1.0 1.397 20.6844 0.47889535
21 0.01034480.0275862 1.5 2.0955 68.948 0.69787040
22 0.01034480.0551724 0.5 1.397 68.948 0.22134200
23 0.01034480.0551724 1.0 2.0955 2.296551 0.67309520
24 0.01034480.0551724 1.5 0.6985 20.6844 0.09603745
25 0.01034480.0827586 0.5 2.0955 20.6844 0.21632172
26 0.01034480.0827586 1.0 0.6985 68.948 0.11110927
27 0.01034480.0827586 1.5 1.397 2.296551 0.56478046
? 3 CMP???? 
Test 
no.
Bp 
(MPa) 
Rp 
(MPa)
W
(mm) 
Tp 
(mm) 
Ep 
(MPa) 
R 
(WIWNU)
1 0.0051034 0.04137937.5 1.04775 11.490475 0.27906548 
2 0.0051034 0.04137937.5 1.74625 44.8162 0.49991529 
3 0.0051034 0.04137931.25 1.04775 44.8162 0.24918262 
4 0.0051034 0.04137931.25 1.74625 11.490475 0.68301050 
5 0.0051034 0.06896557.5 1.04775 44.8162 0.17165516 
6 0.0051034 0.06896557.5 1.74625 11.490475 0.45874779 
7 0.0051034 0.06896551.25 1.04775 11.490475 0.32803746 
8 0.0051034 0.06896551.25 1.74625 44.8162 0.51082729 
9 0.0086206 0.04137937.5 1.04775 44.8162 0.20779287 
10 0.0086206 0.04137937.5 1.74625 11.490475 0.61247604 
11 0.0086206 0.04137931.25 1.04775 11.490475 0.32840995 
12 0.0086206 0.04137931.25 1.74625 44.8162 0.56295351 
13 0.0086206 0.06896557.5 1.04775 11.490475 0.21563985 
14 0.0086206 0.06896557.5 1.74625 44.8162 0.35171323 
15 0.0086206 0.06896551.25 1.04775 44.8162 0.24068264 
16 0.0086206 0.06896551.25 1.74625 11.490475 0.62205144 
 8
   subject to for,0)x(g j ≥ j=1,.., cm   (13) 
??? cm  ??????????x  ???
????? N21 xˆ,...,xˆ,xˆ  ???????
??N????????????????
?????? 
            uxxx ≤≤l             (14) 
??? lx , ux ????????????? 
???????????????????
???????? ??????????
?????????(subproblem) 
        d)x(fdBd
2
1min Tkk
T
Rd n
∇+
∈
     (15) 
subject to            
m,,1jfor,0)x(gd)x(g kj
T
kj K=≥+∇  (16) 
        kuk xxdxx −≤≤−l         (17) 
?? kB ???? Hessian ??? kx ???
??? k ????? kd ???????
)x(f),x(g kkj ∇∇ ???????????
?????????? 
?????(line search)???????? 
1kx + ? 
)1,0(,dxx kk1k ∈λλ+=+      (18) 
?????????????????
?????? 
(2) CMP???????? 
?????????????? CMP
??x ????????????????
???????????-????????
????????????? f(x)????
???????????????????
?????? fε ??? 0.001??????
???? 21 ???????????? 5
???? 8????? normalized????
????? 8?????????????
???????????????????
???????????????????
?????????-?????????
????-???????????????
????? 9?????(????????)
?????? 9????????????
???????????????? 6??
??????????????????
???????????????????
???????????????
=51724.14MPa ? ? ? ? ? ? ? ?
=2.29655MPa ? ? ? ? ? ? ? ?
=0.55172MPa??????=0.738706mm?
?????=1.016mm????????
=0.003448MPa????-????????
=0.99968???-?????=0.0mm???
????????? 0.55899288?????
????????????? 0.07384??
???????? 69.51%? 
?5 ???????? 
???? ?? ?? 
Bp 0.003448 0.010345
Rp 0.4 1.2
W 0.5 1.5
Tp 0.6985 2.0955
Ep 2.29655 68.948
 
0.0
0.1
0.2
0.3
0.4
0.5
0.6
0.7
0.8
0.9
1.0
0 10 20 30 40 50
No. of function call
De
s
i
g
n
 
v
a
r
i
a
b
l
e
s
Bp
Rp
W
Tp
Ep
 
? 8???? normalized?????? 
0.00E+00
5.00E-02
1.00E-01
1.50E-01
2.00E-01
2.50E-01
3.00E-01
0 10 20 30 40 50
No. of function call
Ob
j
e
c
t
i
v
e
 
f
u
n
c
t
i
o
n
 
? 9 ????(????????)??? 
?6 ????????????????
???????? 
???? ?? ????
Bp 0.006897 0.003448
Rp 0.8 0.89776
W 0 0
Tp 1.397 0.738706
Ep 35.62228 2.29655
???? 0.2422 0.07388
 
 
 
